16 618
1 71 17
2 69 65
3 74 27
4 90 43
5 93 31
6 51 83
7 74 20
8 29 96
9 85 75
10 59 96
11 83 50
12 35 6
13 26 43
14 51 48
15 35 58
16 17 43
13
16 4
16 12
5 14
4 15
10 1
11 15
5 9
14 3
6 15
14 16
1 14
13 12
2 12
